; benchmark generated from python API
(set-info :status unknown)
(declare-fun cell_1_3 () Int)
(declare-fun cell_1_4 () Int)
(declare-fun cell_1_6 () Int)
(declare-fun cell_2_1 () Int)
(declare-fun cell_2_7 () Int)
(declare-fun cell_2_8 () Int)
(declare-fun cell_3_1 () Int)
(declare-fun cell_3_6 () Int)
(declare-fun cell_3_8 () Int)
(declare-fun cell_4_2 () Int)
(declare-fun cell_4_3 () Int)
(declare-fun cell_5_6 () Int)
(declare-fun cell_5_9 () Int)
(declare-fun cell_6_4 () Int)
(declare-fun cell_6_8 () Int)
(declare-fun cell_7_1 () Int)
(declare-fun cell_7_5 () Int)
(declare-fun cell_8_2 () Int)
(declare-fun cell_8_7 () Int)
(declare-fun cell_9_5 () Int)
(declare-fun cell_9_9 () Int)
(declare-fun cell_1_1 () Int)
(declare-fun cell_4_1 () Int)
(declare-fun cell_5_1 () Int)
(declare-fun cell_6_1 () Int)
(declare-fun cell_8_1 () Int)
(declare-fun cell_9_1 () Int)
(declare-fun cell_1_2 () Int)
(declare-fun cell_2_2 () Int)
(declare-fun cell_3_2 () Int)
(declare-fun cell_5_2 () Int)
(declare-fun cell_6_2 () Int)
(declare-fun cell_7_2 () Int)
(declare-fun cell_9_2 () Int)
(declare-fun cell_2_3 () Int)
(declare-fun cell_3_3 () Int)
(declare-fun cell_5_3 () Int)
(declare-fun cell_6_3 () Int)
(declare-fun cell_7_3 () Int)
(declare-fun cell_8_3 () Int)
(declare-fun cell_9_3 () Int)
(declare-fun cell_2_4 () Int)
(declare-fun cell_3_4 () Int)
(declare-fun cell_4_4 () Int)
(declare-fun cell_5_4 () Int)
(declare-fun cell_7_4 () Int)
(declare-fun cell_8_4 () Int)
(declare-fun cell_9_4 () Int)
(declare-fun cell_1_5 () Int)
(declare-fun cell_2_5 () Int)
(declare-fun cell_3_5 () Int)
(declare-fun cell_4_5 () Int)
(declare-fun cell_5_5 () Int)
(declare-fun cell_6_5 () Int)
(declare-fun cell_8_5 () Int)
(declare-fun cell_2_6 () Int)
(declare-fun cell_4_6 () Int)
(declare-fun cell_6_6 () Int)
(declare-fun cell_7_6 () Int)
(declare-fun cell_8_6 () Int)
(declare-fun cell_9_6 () Int)
(declare-fun cell_1_7 () Int)
(declare-fun cell_3_7 () Int)
(declare-fun cell_4_7 () Int)
(declare-fun cell_5_7 () Int)
(declare-fun cell_6_7 () Int)
(declare-fun cell_7_7 () Int)
(declare-fun cell_9_7 () Int)
(declare-fun cell_1_8 () Int)
(declare-fun cell_4_8 () Int)
(declare-fun cell_5_8 () Int)
(declare-fun cell_7_8 () Int)
(declare-fun cell_8_8 () Int)
(declare-fun cell_9_8 () Int)
(declare-fun cell_1_9 () Int)
(declare-fun cell_2_9 () Int)
(declare-fun cell_3_9 () Int)
(declare-fun cell_4_9 () Int)
(declare-fun cell_6_9 () Int)
(declare-fun cell_7_9 () Int)
(declare-fun cell_8_9 () Int)
(assert
 (= cell_1_3 2))
(assert
 (= cell_1_4 1))
(assert
 (= cell_1_6 3))
(assert
 (= cell_2_1 3))
(assert
 (= cell_2_7 1))
(assert
 (= cell_2_8 2))
(assert
 (= cell_3_1 1))
(assert
 (= cell_3_6 2))
(assert
 (= cell_3_8 3))
(assert
 (= cell_4_2 2))
(assert
 (= cell_4_3 1))
(assert
 (= cell_5_6 1))
(assert
 (= cell_5_9 2))
(assert
 (= cell_6_4 2))
(assert
 (= cell_6_8 1))
(assert
 (= cell_7_1 2))
(assert
 (= cell_7_5 1))
(assert
 (= cell_8_2 1))
(assert
 (= cell_8_7 2))
(assert
 (= cell_9_5 2))
(assert
 (= cell_9_9 1))
(assert
 (let (($x358 (= cell_1_1 9)))
 (let (($x1556 (= cell_1_1 8)))
 (let (($x802 (= cell_1_1 7)))
 (let (($x5811 (= cell_1_1 6)))
 (let (($x1399 (= cell_1_1 5)))
 (let (($x220 (= cell_1_1 4)))
 (let (($x767 (= cell_1_1 3)))
 (let (($x2638 (= cell_1_1 2)))
 (let (($x512 (= cell_1_1 1)))
 (or $x512 $x2638 $x767 $x220 $x1399 $x5811 $x802 $x1556 $x358)))))))))))
(assert
 (let (($x458 (= cell_2_1 3)))
 (or (= cell_2_1 1) (= cell_2_1 2) $x458 (= cell_2_1 4) (= cell_2_1 5) (= cell_2_1 6) (= cell_2_1 7) (= cell_2_1 8) (= cell_2_1 9))))
(assert
 (let (($x1270 (= cell_3_1 1)))
 (or $x1270 (= cell_3_1 2) (= cell_3_1 3) (= cell_3_1 4) (= cell_3_1 5) (= cell_3_1 6) (= cell_3_1 7) (= cell_3_1 8) (= cell_3_1 9))))
(assert
 (let (($x2254 (= cell_4_1 9)))
 (let (($x605 (= cell_4_1 8)))
 (let (($x1558 (= cell_4_1 7)))
 (let (($x6099 (= cell_4_1 6)))
 (let (($x2944 (= cell_4_1 5)))
 (let (($x2942 (= cell_4_1 4)))
 (let (($x6210 (= cell_4_1 3)))
 (let (($x86 (= cell_4_1 2)))
 (let (($x511 (= cell_4_1 1)))
 (or $x511 $x86 $x6210 $x2942 $x2944 $x6099 $x1558 $x605 $x2254)))))))))))
(assert
 (let (($x2874 (= cell_5_1 9)))
 (let (($x3398 (= cell_5_1 8)))
 (let (($x938 (= cell_5_1 7)))
 (let (($x1746 (= cell_5_1 6)))
 (let (($x2406 (= cell_5_1 5)))
 (let (($x2435 (= cell_5_1 4)))
 (let (($x747 (= cell_5_1 3)))
 (let (($x2442 (= cell_5_1 2)))
 (let (($x45 (= cell_5_1 1)))
 (or $x45 $x2442 $x747 $x2435 $x2406 $x1746 $x938 $x3398 $x2874)))))))))))
(assert
 (let (($x1995 (= cell_6_1 9)))
 (let (($x2608 (= cell_6_1 8)))
 (let (($x424 (= cell_6_1 7)))
 (let (($x295 (= cell_6_1 6)))
 (let (($x2160 (= cell_6_1 5)))
 (let (($x1712 (= cell_6_1 4)))
 (let (($x1815 (= cell_6_1 3)))
 (let (($x1311 (= cell_6_1 2)))
 (let (($x6697 (= cell_6_1 1)))
 (or $x6697 $x1311 $x1815 $x1712 $x2160 $x295 $x424 $x2608 $x1995)))))))))))
(assert
 (let (($x6268 (= cell_7_1 2)))
 (or (= cell_7_1 1) $x6268 (= cell_7_1 3) (= cell_7_1 4) (= cell_7_1 5) (= cell_7_1 6) (= cell_7_1 7) (= cell_7_1 8) (= cell_7_1 9))))
(assert
 (let (($x851 (= cell_8_1 9)))
 (let (($x794 (= cell_8_1 8)))
 (let (($x703 (= cell_8_1 7)))
 (let (($x636 (= cell_8_1 6)))
 (let (($x210 (= cell_8_1 5)))
 (let (($x1449 (= cell_8_1 4)))
 (let (($x1302 (= cell_8_1 3)))
 (let (($x1874 (= cell_8_1 2)))
 (let (($x593 (= cell_8_1 1)))
 (or $x593 $x1874 $x1302 $x1449 $x210 $x636 $x703 $x794 $x851)))))))))))
(assert
 (let (($x3386 (= cell_9_1 9)))
 (let (($x632 (= cell_9_1 8)))
 (let (($x3182 (= cell_9_1 7)))
 (let (($x180 (= cell_9_1 6)))
 (let (($x1911 (= cell_9_1 5)))
 (let (($x835 (= cell_9_1 4)))
 (let (($x2921 (= cell_9_1 3)))
 (let (($x990 (= cell_9_1 2)))
 (let (($x461 (= cell_9_1 1)))
 (or $x461 $x990 $x2921 $x835 $x1911 $x180 $x3182 $x632 $x3386)))))))))))
(assert
 (let (($x3436 (= cell_1_2 9)))
 (let (($x3343 (= cell_1_2 8)))
 (let (($x6570 (= cell_1_2 7)))
 (let (($x1500 (= cell_1_2 6)))
 (let (($x3456 (= cell_1_2 5)))
 (let (($x2837 (= cell_1_2 4)))
 (let (($x627 (= cell_1_2 3)))
 (let (($x566 (= cell_1_2 2)))
 (let (($x2018 (= cell_1_2 1)))
 (or $x2018 $x566 $x627 $x2837 $x3456 $x1500 $x6570 $x3343 $x3436)))))))))))
(assert
 (let (($x172 (= cell_2_2 9)))
 (let (($x3253 (= cell_2_2 8)))
 (let (($x2085 (= cell_2_2 7)))
 (let (($x2571 (= cell_2_2 6)))
 (let (($x679 (= cell_2_2 5)))
 (let (($x2957 (= cell_2_2 4)))
 (let (($x1986 (= cell_2_2 3)))
 (let (($x2135 (= cell_2_2 2)))
 (let (($x3562 (= cell_2_2 1)))
 (or $x3562 $x2135 $x1986 $x2957 $x679 $x2571 $x2085 $x3253 $x172)))))))))))
(assert
 (let (($x2402 (= cell_3_2 9)))
 (let (($x1340 (= cell_3_2 8)))
 (let (($x719 (= cell_3_2 7)))
 (let (($x402 (= cell_3_2 6)))
 (let (($x1920 (= cell_3_2 5)))
 (let (($x1764 (= cell_3_2 4)))
 (let (($x361 (= cell_3_2 3)))
 (let (($x164 (= cell_3_2 2)))
 (let (($x2019 (= cell_3_2 1)))
 (or $x2019 $x164 $x361 $x1764 $x1920 $x402 $x719 $x1340 $x2402)))))))))))
(assert
 (let (($x3165 (= cell_4_2 2)))
 (or (= cell_4_2 1) $x3165 (= cell_4_2 3) (= cell_4_2 4) (= cell_4_2 5) (= cell_4_2 6) (= cell_4_2 7) (= cell_4_2 8) (= cell_4_2 9))))
(assert
 (let (($x978 (= cell_5_2 9)))
 (let (($x3111 (= cell_5_2 8)))
 (let (($x5216 (= cell_5_2 7)))
 (let (($x2847 (= cell_5_2 6)))
 (let (($x645 (= cell_5_2 5)))
 (let (($x5923 (= cell_5_2 4)))
 (let (($x1864 (= cell_5_2 3)))
 (let (($x1705 (= cell_5_2 2)))
 (let (($x1280 (= cell_5_2 1)))
 (or $x1280 $x1705 $x1864 $x5923 $x645 $x2847 $x5216 $x3111 $x978)))))))))))
(assert
 (let (($x2551 (= cell_6_2 9)))
 (let (($x2634 (= cell_6_2 8)))
 (let (($x2835 (= cell_6_2 7)))
 (let (($x1816 (= cell_6_2 6)))
 (let (($x6364 (= cell_6_2 5)))
 (let (($x3385 (= cell_6_2 4)))
 (let (($x34 (= cell_6_2 3)))
 (let (($x975 (= cell_6_2 2)))
 (let (($x6267 (= cell_6_2 1)))
 (or $x6267 $x975 $x34 $x3385 $x6364 $x1816 $x2835 $x2634 $x2551)))))))))))
(assert
 (let (($x1572 (= cell_7_2 9)))
 (let (($x3036 (= cell_7_2 8)))
 (let (($x1333 (= cell_7_2 7)))
 (let (($x330 (= cell_7_2 6)))
 (let (($x3307 (= cell_7_2 5)))
 (let (($x1632 (= cell_7_2 4)))
 (let (($x2065 (= cell_7_2 3)))
 (let (($x1193 (= cell_7_2 2)))
 (let (($x1147 (= cell_7_2 1)))
 (or $x1147 $x1193 $x2065 $x1632 $x3307 $x330 $x1333 $x3036 $x1572)))))))))))
(assert
 (let (($x1460 (= cell_8_2 1)))
 (or $x1460 (= cell_8_2 2) (= cell_8_2 3) (= cell_8_2 4) (= cell_8_2 5) (= cell_8_2 6) (= cell_8_2 7) (= cell_8_2 8) (= cell_8_2 9))))
(assert
 (let (($x3526 (= cell_9_2 9)))
 (let (($x961 (= cell_9_2 8)))
 (let (($x1467 (= cell_9_2 7)))
 (let (($x2039 (= cell_9_2 6)))
 (let (($x1867 (= cell_9_2 5)))
 (let (($x669 (= cell_9_2 4)))
 (let (($x381 (= cell_9_2 3)))
 (let (($x1374 (= cell_9_2 2)))
 (let (($x344 (= cell_9_2 1)))
 (or $x344 $x1374 $x381 $x669 $x1867 $x2039 $x1467 $x961 $x3526)))))))))))
(assert
 (let (($x1748 (= cell_1_3 2)))
 (or (= cell_1_3 1) $x1748 (= cell_1_3 3) (= cell_1_3 4) (= cell_1_3 5) (= cell_1_3 6) (= cell_1_3 7) (= cell_1_3 8) (= cell_1_3 9))))
(assert
 (let (($x1937 (= cell_2_3 9)))
 (let (($x1323 (= cell_2_3 8)))
 (let (($x6365 (= cell_2_3 7)))
 (let (($x551 (= cell_2_3 6)))
 (let (($x1162 (= cell_2_3 5)))
 (let (($x1933 (= cell_2_3 4)))
 (let (($x2068 (= cell_2_3 3)))
 (let (($x3493 (= cell_2_3 2)))
 (let (($x2777 (= cell_2_3 1)))
 (or $x2777 $x3493 $x2068 $x1933 $x1162 $x551 $x6365 $x1323 $x1937)))))))))))
(assert
 (let (($x206 (= cell_3_3 9)))
 (let (($x5233 (= cell_3_3 8)))
 (let (($x3566 (= cell_3_3 7)))
 (let (($x816 (= cell_3_3 6)))
 (let (($x92 (= cell_3_3 5)))
 (let (($x720 (= cell_3_3 4)))
 (let (($x1682 (= cell_3_3 3)))
 (let (($x1799 (= cell_3_3 2)))
 (let (($x3488 (= cell_3_3 1)))
 (or $x3488 $x1799 $x1682 $x720 $x92 $x816 $x3566 $x5233 $x206)))))))))))
(assert
 (let (($x6359 (= cell_4_3 1)))
 (or $x6359 (= cell_4_3 2) (= cell_4_3 3) (= cell_4_3 4) (= cell_4_3 5) (= cell_4_3 6) (= cell_4_3 7) (= cell_4_3 8) (= cell_4_3 9))))
(assert
 (let (($x33 (= cell_5_3 9)))
 (let (($x2846 (= cell_5_3 8)))
 (let (($x2023 (= cell_5_3 7)))
 (let (($x633 (= cell_5_3 6)))
 (let (($x2434 (= cell_5_3 5)))
 (let (($x1315 (= cell_5_3 4)))
 (let (($x1898 (= cell_5_3 3)))
 (let (($x202 (= cell_5_3 2)))
 (let (($x1440 (= cell_5_3 1)))
 (or $x1440 $x202 $x1898 $x1315 $x2434 $x633 $x2023 $x2846 $x33)))))))))))
(assert
 (let (($x132 (= cell_6_3 9)))
 (let (($x915 (= cell_6_3 8)))
 (let (($x2236 (= cell_6_3 7)))
 (let (($x539 (= cell_6_3 6)))
 (let (($x2201 (= cell_6_3 5)))
 (let (($x2126 (= cell_6_3 4)))
 (let (($x2352 (= cell_6_3 3)))
 (let (($x6768 (= cell_6_3 2)))
 (let (($x1679 (= cell_6_3 1)))
 (or $x1679 $x6768 $x2352 $x2126 $x2201 $x539 $x2236 $x915 $x132)))))))))))
(assert
 (let (($x6748 (= cell_7_3 9)))
 (let (($x78 (= cell_7_3 8)))
 (let (($x1719 (= cell_7_3 7)))
 (let (($x569 (= cell_7_3 6)))
 (let (($x5251 (= cell_7_3 5)))
 (let (($x2379 (= cell_7_3 4)))
 (let (($x2245 (= cell_7_3 3)))
 (let (($x2883 (= cell_7_3 2)))
 (let (($x290 (= cell_7_3 1)))
 (or $x290 $x2883 $x2245 $x2379 $x5251 $x569 $x1719 $x78 $x6748)))))))))))
(assert
 (let (($x958 (= cell_8_3 9)))
 (let (($x692 (= cell_8_3 8)))
 (let (($x1203 (= cell_8_3 7)))
 (let (($x2945 (= cell_8_3 6)))
 (let (($x1519 (= cell_8_3 5)))
 (let (($x484 (= cell_8_3 4)))
 (let (($x312 (= cell_8_3 3)))
 (let (($x6115 (= cell_8_3 2)))
 (let (($x2472 (= cell_8_3 1)))
 (or $x2472 $x6115 $x312 $x484 $x1519 $x2945 $x1203 $x692 $x958)))))))))))
(assert
 (let (($x3509 (= cell_9_3 9)))
 (let (($x984 (= cell_9_3 8)))
 (let (($x1208 (= cell_9_3 7)))
 (let (($x1220 (= cell_9_3 6)))
 (let (($x6388 (= cell_9_3 5)))
 (let (($x920 (= cell_9_3 4)))
 (let (($x367 (= cell_9_3 3)))
 (let (($x1405 (= cell_9_3 2)))
 (let (($x585 (= cell_9_3 1)))
 (or $x585 $x1405 $x367 $x920 $x6388 $x1220 $x1208 $x984 $x3509)))))))))))
(assert
 (let (($x69 (= cell_1_4 1)))
 (or $x69 (= cell_1_4 2) (= cell_1_4 3) (= cell_1_4 4) (= cell_1_4 5) (= cell_1_4 6) (= cell_1_4 7) (= cell_1_4 8) (= cell_1_4 9))))
(assert
 (let (($x5808 (= cell_2_4 9)))
 (let (($x3585 (= cell_2_4 8)))
 (let (($x259 (= cell_2_4 7)))
 (let (($x3047 (= cell_2_4 6)))
 (let (($x6517 (= cell_2_4 5)))
 (let (($x1424 (= cell_2_4 4)))
 (let (($x2038 (= cell_2_4 3)))
 (let (($x1494 (= cell_2_4 2)))
 (let (($x3581 (= cell_2_4 1)))
 (or $x3581 $x1494 $x2038 $x1424 $x6517 $x3047 $x259 $x3585 $x5808)))))))))))
(assert
 (let (($x716 (= cell_3_4 9)))
 (let (($x120 (= cell_3_4 8)))
 (let (($x1194 (= cell_3_4 7)))
 (let (($x2092 (= cell_3_4 6)))
 (let (($x583 (= cell_3_4 5)))
 (let (($x557 (= cell_3_4 4)))
 (let (($x457 (= cell_3_4 3)))
 (let (($x2716 (= cell_3_4 2)))
 (let (($x6730 (= cell_3_4 1)))
 (or $x6730 $x2716 $x457 $x557 $x583 $x2092 $x1194 $x120 $x716)))))))))))
(assert
 (let (($x772 (= cell_4_4 9)))
 (let (($x1131 (= cell_4_4 8)))
 (let (($x1016 (= cell_4_4 7)))
 (let (($x153 (= cell_4_4 6)))
 (let (($x3440 (= cell_4_4 5)))
 (let (($x2597 (= cell_4_4 4)))
 (let (($x2103 (= cell_4_4 3)))
 (let (($x2295 (= cell_4_4 2)))
 (let (($x6702 (= cell_4_4 1)))
 (or $x6702 $x2295 $x2103 $x2597 $x3440 $x153 $x1016 $x1131 $x772)))))))))))
(assert
 (let (($x6427 (= cell_5_4 9)))
 (let (($x306 (= cell_5_4 8)))
 (let (($x186 (= cell_5_4 7)))
 (let (($x6203 (= cell_5_4 6)))
 (let (($x736 (= cell_5_4 5)))
 (let (($x3574 (= cell_5_4 4)))
 (let (($x279 (= cell_5_4 3)))
 (let (($x3086 (= cell_5_4 2)))
 (let (($x5242 (= cell_5_4 1)))
 (or $x5242 $x3086 $x279 $x3574 $x736 $x6203 $x186 $x306 $x6427)))))))))))
(assert
 (let (($x5241 (= cell_6_4 2)))
 (or (= cell_6_4 1) $x5241 (= cell_6_4 3) (= cell_6_4 4) (= cell_6_4 5) (= cell_6_4 6) (= cell_6_4 7) (= cell_6_4 8) (= cell_6_4 9))))
(assert
 (let (($x9 (= cell_7_4 9)))
 (let (($x3370 (= cell_7_4 8)))
 (let (($x6712 (= cell_7_4 7)))
 (let (($x6597 (= cell_7_4 6)))
 (let (($x213 (= cell_7_4 5)))
 (let (($x917 (= cell_7_4 4)))
 (let (($x1366 (= cell_7_4 3)))
 (let (($x726 (= cell_7_4 2)))
 (let (($x52 (= cell_7_4 1)))
 (or $x52 $x726 $x1366 $x917 $x213 $x6597 $x6712 $x3370 $x9)))))))))))
(assert
 (let (($x2780 (= cell_8_4 9)))
 (let (($x3075 (= cell_8_4 8)))
 (let (($x2718 (= cell_8_4 7)))
 (let (($x1395 (= cell_8_4 6)))
 (let (($x3514 (= cell_8_4 5)))
 (let (($x2378 (= cell_8_4 4)))
 (let (($x3068 (= cell_8_4 3)))
 (let (($x184 (= cell_8_4 2)))
 (let (($x187 (= cell_8_4 1)))
 (or $x187 $x184 $x3068 $x2378 $x3514 $x1395 $x2718 $x3075 $x2780)))))))))))
(assert
 (let (($x3223 (= cell_9_4 9)))
 (let (($x6408 (= cell_9_4 8)))
 (let (($x2871 (= cell_9_4 7)))
 (let (($x1482 (= cell_9_4 6)))
 (let (($x3290 (= cell_9_4 5)))
 (let (($x487 (= cell_9_4 4)))
 (let (($x3464 (= cell_9_4 3)))
 (let (($x2963 (= cell_9_4 2)))
 (let (($x1507 (= cell_9_4 1)))
 (or $x1507 $x2963 $x3464 $x487 $x3290 $x1482 $x2871 $x6408 $x3223)))))))))))
(assert
 (let (($x783 (= cell_1_5 9)))
 (let (($x1211 (= cell_1_5 8)))
 (let (($x3503 (= cell_1_5 7)))
 (let (($x1715 (= cell_1_5 6)))
 (let (($x1515 (= cell_1_5 5)))
 (let (($x1258 (= cell_1_5 4)))
 (let (($x827 (= cell_1_5 3)))
 (let (($x304 (= cell_1_5 2)))
 (let (($x2542 (= cell_1_5 1)))
 (or $x2542 $x304 $x827 $x1258 $x1515 $x1715 $x3503 $x1211 $x783)))))))))))
(assert
 (let (($x1259 (= cell_2_5 9)))
 (let (($x2587 (= cell_2_5 8)))
 (let (($x2856 (= cell_2_5 7)))
 (let (($x2125 (= cell_2_5 6)))
 (let (($x123 (= cell_2_5 5)))
 (let (($x2169 (= cell_2_5 4)))
 (let (($x479 (= cell_2_5 3)))
 (let (($x3380 (= cell_2_5 2)))
 (let (($x59 (= cell_2_5 1)))
 (or $x59 $x3380 $x479 $x2169 $x123 $x2125 $x2856 $x2587 $x1259)))))))))))
(assert
 (let (($x1604 (= cell_3_5 9)))
 (let (($x2116 (= cell_3_5 8)))
 (let (($x2373 (= cell_3_5 7)))
 (let (($x1068 (= cell_3_5 6)))
 (let (($x1518 (= cell_3_5 5)))
 (let (($x246 (= cell_3_5 4)))
 (let (($x3009 (= cell_3_5 3)))
 (let (($x1491 (= cell_3_5 2)))
 (let (($x771 (= cell_3_5 1)))
 (or $x771 $x1491 $x3009 $x246 $x1518 $x1068 $x2373 $x2116 $x1604)))))))))))
(assert
 (let (($x6072 (= cell_4_5 9)))
 (let (($x2229 (= cell_4_5 8)))
 (let (($x2976 (= cell_4_5 7)))
 (let (($x1221 (= cell_4_5 6)))
 (let (($x2884 (= cell_4_5 5)))
 (let (($x2399 (= cell_4_5 4)))
 (let (($x1202 (= cell_4_5 3)))
 (let (($x1791 (= cell_4_5 2)))
 (let (($x371 (= cell_4_5 1)))
 (or $x371 $x1791 $x1202 $x2399 $x2884 $x1221 $x2976 $x2229 $x6072)))))))))))
(assert
 (let (($x2714 (= cell_5_5 9)))
 (let (($x2719 (= cell_5_5 8)))
 (let (($x2678 (= cell_5_5 7)))
 (let (($x6118 (= cell_5_5 6)))
 (let (($x1451 (= cell_5_5 5)))
 (let (($x6510 (= cell_5_5 4)))
 (let (($x3218 (= cell_5_5 3)))
 (let (($x433 (= cell_5_5 2)))
 (let (($x463 (= cell_5_5 1)))
 (or $x463 $x433 $x3218 $x6510 $x1451 $x6118 $x2678 $x2719 $x2714)))))))))))
(assert
 (let (($x1528 (= cell_6_5 9)))
 (let (($x3578 (= cell_6_5 8)))
 (let (($x2111 (= cell_6_5 7)))
 (let (($x2451 (= cell_6_5 6)))
 (let (($x5234 (= cell_6_5 5)))
 (let (($x1276 (= cell_6_5 4)))
 (let (($x1394 (= cell_6_5 3)))
 (let (($x360 (= cell_6_5 2)))
 (let (($x2685 (= cell_6_5 1)))
 (or $x2685 $x360 $x1394 $x1276 $x5234 $x2451 $x2111 $x3578 $x1528)))))))))))
(assert
 (let (($x3267 (= cell_7_5 1)))
 (or $x3267 (= cell_7_5 2) (= cell_7_5 3) (= cell_7_5 4) (= cell_7_5 5) (= cell_7_5 6) (= cell_7_5 7) (= cell_7_5 8) (= cell_7_5 9))))
(assert
 (let (($x2041 (= cell_8_5 9)))
 (let (($x1212 (= cell_8_5 8)))
 (let (($x3150 (= cell_8_5 7)))
 (let (($x1706 (= cell_8_5 6)))
 (let (($x2277 (= cell_8_5 5)))
 (let (($x1809 (= cell_8_5 4)))
 (let (($x6610 (= cell_8_5 3)))
 (let (($x3446 (= cell_8_5 2)))
 (let (($x1535 (= cell_8_5 1)))
 (or $x1535 $x3446 $x6610 $x1809 $x2277 $x1706 $x3150 $x1212 $x2041)))))))))))
(assert
 (let (($x2073 (= cell_9_5 2)))
 (or (= cell_9_5 1) $x2073 (= cell_9_5 3) (= cell_9_5 4) (= cell_9_5 5) (= cell_9_5 6) (= cell_9_5 7) (= cell_9_5 8) (= cell_9_5 9))))
(assert
 (let (($x462 (= cell_1_6 3)))
 (or (= cell_1_6 1) (= cell_1_6 2) $x462 (= cell_1_6 4) (= cell_1_6 5) (= cell_1_6 6) (= cell_1_6 7) (= cell_1_6 8) (= cell_1_6 9))))
(assert
 (let (($x1090 (= cell_2_6 9)))
 (let (($x3181 (= cell_2_6 8)))
 (let (($x2616 (= cell_2_6 7)))
 (let (($x3130 (= cell_2_6 6)))
 (let (($x6531 (= cell_2_6 5)))
 (let (($x1611 (= cell_2_6 4)))
 (let (($x868 (= cell_2_6 3)))
 (let (($x3413 (= cell_2_6 2)))
 (let (($x63 (= cell_2_6 1)))
 (or $x63 $x3413 $x868 $x1611 $x6531 $x3130 $x2616 $x3181 $x1090)))))))))))
(assert
 (let (($x571 (= cell_3_6 2)))
 (or (= cell_3_6 1) $x571 (= cell_3_6 3) (= cell_3_6 4) (= cell_3_6 5) (= cell_3_6 6) (= cell_3_6 7) (= cell_3_6 8) (= cell_3_6 9))))
(assert
 (let (($x741 (= cell_4_6 9)))
 (let (($x600 (= cell_4_6 8)))
 (let (($x1595 (= cell_4_6 7)))
 (let (($x303 (= cell_4_6 6)))
 (let (($x1477 (= cell_4_6 5)))
 (let (($x715 (= cell_4_6 4)))
 (let (($x493 (= cell_4_6 3)))
 (let (($x1334 (= cell_4_6 2)))
 (let (($x804 (= cell_4_6 1)))
 (or $x804 $x1334 $x493 $x715 $x1477 $x303 $x1595 $x600 $x741)))))))))))
(assert
 (let (($x494 (= cell_5_6 1)))
 (or $x494 (= cell_5_6 2) (= cell_5_6 3) (= cell_5_6 4) (= cell_5_6 5) (= cell_5_6 6) (= cell_5_6 7) (= cell_5_6 8) (= cell_5_6 9))))
(assert
 (let (($x394 (= cell_6_6 9)))
 (let (($x3117 (= cell_6_6 8)))
 (let (($x1206 (= cell_6_6 7)))
 (let (($x1541 (= cell_6_6 6)))
 (let (($x3470 (= cell_6_6 5)))
 (let (($x6526 (= cell_6_6 4)))
 (let (($x3439 (= cell_6_6 3)))
 (let (($x514 (= cell_6_6 2)))
 (let (($x1670 (= cell_6_6 1)))
 (or $x1670 $x514 $x3439 $x6526 $x3470 $x1541 $x1206 $x3117 $x394)))))))))))
(assert
 (let (($x374 (= cell_7_6 9)))
 (let (($x6602 (= cell_7_6 8)))
 (let (($x1266 (= cell_7_6 7)))
 (let (($x2264 (= cell_7_6 6)))
 (let (($x1127 (= cell_7_6 5)))
 (let (($x1578 (= cell_7_6 4)))
 (let (($x6262 (= cell_7_6 3)))
 (let (($x2667 (= cell_7_6 2)))
 (let (($x2715 (= cell_7_6 1)))
 (or $x2715 $x2667 $x6262 $x1578 $x1127 $x2264 $x1266 $x6602 $x374)))))))))))
(assert
 (let (($x2305 (= cell_8_6 9)))
 (let (($x2357 (= cell_8_6 8)))
 (let (($x1952 (= cell_8_6 7)))
 (let (($x1254 (= cell_8_6 6)))
 (let (($x2314 (= cell_8_6 5)))
 (let (($x1829 (= cell_8_6 4)))
 (let (($x10 (= cell_8_6 3)))
 (let (($x1980 (= cell_8_6 2)))
 (let (($x2762 (= cell_8_6 1)))
 (or $x2762 $x1980 $x10 $x1829 $x2314 $x1254 $x1952 $x2357 $x2305)))))))))))
(assert
 (let (($x1819 (= cell_9_6 9)))
 (let (($x116 (= cell_9_6 8)))
 (let (($x574 (= cell_9_6 7)))
 (let (($x2930 (= cell_9_6 6)))
 (let (($x214 (= cell_9_6 5)))
 (let (($x6223 (= cell_9_6 4)))
 (let (($x1244 (= cell_9_6 3)))
 (let (($x6274 (= cell_9_6 2)))
 (let (($x793 (= cell_9_6 1)))
 (or $x793 $x6274 $x1244 $x6223 $x214 $x2930 $x574 $x116 $x1819)))))))))))
(assert
 (let (($x2897 (= cell_1_7 9)))
 (let (($x2467 (= cell_1_7 8)))
 (let (($x612 (= cell_1_7 7)))
 (let (($x6168 (= cell_1_7 6)))
 (let (($x2040 (= cell_1_7 5)))
 (let (($x1800 (= cell_1_7 4)))
 (let (($x710 (= cell_1_7 3)))
 (let (($x2918 (= cell_1_7 2)))
 (let (($x6106 (= cell_1_7 1)))
 (or $x6106 $x2918 $x710 $x1800 $x2040 $x6168 $x612 $x2467 $x2897)))))))))))
(assert
 (let (($x1917 (= cell_2_7 1)))
 (or $x1917 (= cell_2_7 2) (= cell_2_7 3) (= cell_2_7 4) (= cell_2_7 5) (= cell_2_7 6) (= cell_2_7 7) (= cell_2_7 8) (= cell_2_7 9))))
(assert
 (let (($x2913 (= cell_3_7 9)))
 (let (($x1115 (= cell_3_7 8)))
 (let (($x2548 (= cell_3_7 7)))
 (let (($x3524 (= cell_3_7 6)))
 (let (($x193 (= cell_3_7 5)))
 (let (($x1739 (= cell_3_7 4)))
 (let (($x445 (= cell_3_7 3)))
 (let (($x1741 (= cell_3_7 2)))
 (let (($x3083 (= cell_3_7 1)))
 (or $x3083 $x1741 $x445 $x1739 $x193 $x3524 $x2548 $x1115 $x2913)))))))))))
(assert
 (let (($x363 (= cell_4_7 9)))
 (let (($x1626 (= cell_4_7 8)))
 (let (($x6786 (= cell_4_7 7)))
 (let (($x2150 (= cell_4_7 6)))
 (let (($x2756 (= cell_4_7 5)))
 (let (($x1924 (= cell_4_7 4)))
 (let (($x6560 (= cell_4_7 3)))
 (let (($x2507 (= cell_4_7 2)))
 (let (($x2302 (= cell_4_7 1)))
 (or $x2302 $x2507 $x6560 $x1924 $x2756 $x2150 $x6786 $x1626 $x363)))))))))))
(assert
 (let (($x1844 (= cell_5_7 9)))
 (let (($x188 (= cell_5_7 8)))
 (let (($x1365 (= cell_5_7 7)))
 (let (($x2011 (= cell_5_7 6)))
 (let (($x208 (= cell_5_7 5)))
 (let (($x6519 (= cell_5_7 4)))
 (let (($x437 (= cell_5_7 3)))
 (let (($x6199 (= cell_5_7 2)))
 (let (($x2209 (= cell_5_7 1)))
 (or $x2209 $x6199 $x437 $x6519 $x208 $x2011 $x1365 $x188 $x1844)))))))))))
(assert
 (let (($x6331 (= cell_6_7 9)))
 (let (($x2189 (= cell_6_7 8)))
 (let (($x3245 (= cell_6_7 7)))
 (let (($x2540 (= cell_6_7 6)))
 (let (($x2849 (= cell_6_7 5)))
 (let (($x937 (= cell_6_7 4)))
 (let (($x879 (= cell_6_7 3)))
 (let (($x2776 (= cell_6_7 2)))
 (let (($x6707 (= cell_6_7 1)))
 (or $x6707 $x2776 $x879 $x937 $x2849 $x2540 $x3245 $x2189 $x6331)))))))))))
(assert
 (let (($x3072 (= cell_7_7 9)))
 (let (($x1683 (= cell_7_7 8)))
 (let (($x530 (= cell_7_7 7)))
 (let (($x6296 (= cell_7_7 6)))
 (let (($x762 (= cell_7_7 5)))
 (let (($x6749 (= cell_7_7 4)))
 (let (($x2395 (= cell_7_7 3)))
 (let (($x6212 (= cell_7_7 2)))
 (let (($x6300 (= cell_7_7 1)))
 (or $x6300 $x6212 $x2395 $x6749 $x762 $x6296 $x530 $x1683 $x3072)))))))))))
(assert
 (let (($x2518 (= cell_8_7 2)))
 (or (= cell_8_7 1) $x2518 (= cell_8_7 3) (= cell_8_7 4) (= cell_8_7 5) (= cell_8_7 6) (= cell_8_7 7) (= cell_8_7 8) (= cell_8_7 9))))
(assert
 (let (($x2200 (= cell_9_7 9)))
 (let (($x85 (= cell_9_7 8)))
 (let (($x6722 (= cell_9_7 7)))
 (let (($x130 (= cell_9_7 6)))
 (let (($x3262 (= cell_9_7 5)))
 (let (($x5213 (= cell_9_7 4)))
 (let (($x684 (= cell_9_7 3)))
 (let (($x2729 (= cell_9_7 2)))
 (let (($x2573 (= cell_9_7 1)))
 (or $x2573 $x2729 $x684 $x5213 $x3262 $x130 $x6722 $x85 $x2200)))))))))))
(assert
 (let (($x1118 (= cell_1_8 9)))
 (let (($x3332 (= cell_1_8 8)))
 (let (($x3547 (= cell_1_8 7)))
 (let (($x1329 (= cell_1_8 6)))
 (let (($x1922 (= cell_1_8 5)))
 (let (($x3151 (= cell_1_8 4)))
 (let (($x179 (= cell_1_8 3)))
 (let (($x881 (= cell_1_8 2)))
 (let (($x3434 (= cell_1_8 1)))
 (or $x3434 $x881 $x179 $x3151 $x1922 $x1329 $x3547 $x3332 $x1118)))))))))))
(assert
 (let (($x3553 (= cell_2_8 2)))
 (or (= cell_2_8 1) $x3553 (= cell_2_8 3) (= cell_2_8 4) (= cell_2_8 5) (= cell_2_8 6) (= cell_2_8 7) (= cell_2_8 8) (= cell_2_8 9))))
(assert
 (let (($x651 (= cell_3_8 3)))
 (or (= cell_3_8 1) (= cell_3_8 2) $x651 (= cell_3_8 4) (= cell_3_8 5) (= cell_3_8 6) (= cell_3_8 7) (= cell_3_8 8) (= cell_3_8 9))))
(assert
 (let (($x273 (= cell_4_8 9)))
 (let (($x224 (= cell_4_8 8)))
 (let (($x327 (= cell_4_8 7)))
 (let (($x1865 (= cell_4_8 6)))
 (let (($x2386 (= cell_4_8 5)))
 (let (($x519 (= cell_4_8 4)))
 (let (($x355 (= cell_4_8 3)))
 (let (($x2956 (= cell_4_8 2)))
 (let (($x3321 (= cell_4_8 1)))
 (or $x3321 $x2956 $x355 $x519 $x2386 $x1865 $x327 $x224 $x273)))))))))))
(assert
 (let (($x1223 (= cell_5_8 9)))
 (let (($x222 (= cell_5_8 8)))
 (let (($x1999 (= cell_5_8 7)))
 (let (($x2865 (= cell_5_8 6)))
 (let (($x1253 (= cell_5_8 5)))
 (let (($x366 (= cell_5_8 4)))
 (let (($x1010 (= cell_5_8 3)))
 (let (($x6518 (= cell_5_8 2)))
 (let (($x6291 (= cell_5_8 1)))
 (or $x6291 $x6518 $x1010 $x366 $x1253 $x2865 $x1999 $x222 $x1223)))))))))))
(assert
 (let (($x2991 (= cell_6_8 1)))
 (or $x2991 (= cell_6_8 2) (= cell_6_8 3) (= cell_6_8 4) (= cell_6_8 5) (= cell_6_8 6) (= cell_6_8 7) (= cell_6_8 8) (= cell_6_8 9))))
(assert
 (let (($x389 (= cell_7_8 9)))
 (let (($x114 (= cell_7_8 8)))
 (let (($x3112 (= cell_7_8 7)))
 (let (($x2741 (= cell_7_8 6)))
 (let (($x1351 (= cell_7_8 5)))
 (let (($x6522 (= cell_7_8 4)))
 (let (($x3522 (= cell_7_8 3)))
 (let (($x6157 (= cell_7_8 2)))
 (let (($x1776 (= cell_7_8 1)))
 (or $x1776 $x6157 $x3522 $x6522 $x1351 $x2741 $x3112 $x114 $x389)))))))))))
(assert
 (let (($x6150 (= cell_8_8 9)))
 (let (($x1693 (= cell_8_8 8)))
 (let (($x1473 (= cell_8_8 7)))
 (let (($x2444 (= cell_8_8 6)))
 (let (($x1154 (= cell_8_8 5)))
 (let (($x2803 (= cell_8_8 4)))
 (let (($x74 (= cell_8_8 3)))
 (let (($x1638 (= cell_8_8 2)))
 (let (($x6252 (= cell_8_8 1)))
 (or $x6252 $x1638 $x74 $x2803 $x1154 $x2444 $x1473 $x1693 $x6150)))))))))))
(assert
 (let (($x3119 (= cell_9_8 9)))
 (let (($x168 (= cell_9_8 8)))
 (let (($x2247 (= cell_9_8 7)))
 (let (($x271 (= cell_9_8 6)))
 (let (($x499 (= cell_9_8 5)))
 (let (($x3008 (= cell_9_8 4)))
 (let (($x1146 (= cell_9_8 3)))
 (let (($x1750 (= cell_9_8 2)))
 (let (($x2292 (= cell_9_8 1)))
 (or $x2292 $x1750 $x1146 $x3008 $x499 $x271 $x2247 $x168 $x3119)))))))))))
(assert
 (let (($x828 (= cell_1_9 9)))
 (let (($x272 (= cell_1_9 8)))
 (let (($x6304 (= cell_1_9 7)))
 (let (($x871 (= cell_1_9 6)))
 (let (($x533 (= cell_1_9 5)))
 (let (($x1773 (= cell_1_9 4)))
 (let (($x677 (= cell_1_9 3)))
 (let (($x3477 (= cell_1_9 2)))
 (let (($x6514 (= cell_1_9 1)))
 (or $x6514 $x3477 $x677 $x1773 $x533 $x871 $x6304 $x272 $x828)))))))))))
(assert
 (let (($x930 (= cell_2_9 9)))
 (let (($x5223 (= cell_2_9 8)))
 (let (($x1990 (= cell_2_9 7)))
 (let (($x2512 (= cell_2_9 6)))
 (let (($x5908 (= cell_2_9 5)))
 (let (($x1236 (= cell_2_9 4)))
 (let (($x1771 (= cell_2_9 3)))
 (let (($x1456 (= cell_2_9 2)))
 (let (($x3324 (= cell_2_9 1)))
 (or $x3324 $x1456 $x1771 $x1236 $x5908 $x2512 $x1990 $x5223 $x930)))))))))))
(assert
 (let (($x3018 (= cell_3_9 9)))
 (let (($x2898 (= cell_3_9 8)))
 (let (($x2581 (= cell_3_9 7)))
 (let (($x3512 (= cell_3_9 6)))
 (let (($x3019 (= cell_3_9 5)))
 (let (($x1037 (= cell_3_9 4)))
 (let (($x2423 (= cell_3_9 3)))
 (let (($x2128 (= cell_3_9 2)))
 (let (($x1201 (= cell_3_9 1)))
 (or $x1201 $x2128 $x2423 $x1037 $x3019 $x3512 $x2581 $x2898 $x3018)))))))))))
(assert
 (let (($x1563 (= cell_4_9 9)))
 (let (($x2255 (= cell_4_9 8)))
 (let (($x1094 (= cell_4_9 7)))
 (let (($x3504 (= cell_4_9 6)))
 (let (($x2628 (= cell_4_9 5)))
 (let (($x2155 (= cell_4_9 4)))
 (let (($x6358 (= cell_4_9 3)))
 (let (($x1427 (= cell_4_9 2)))
 (let (($x1257 (= cell_4_9 1)))
 (or $x1257 $x1427 $x6358 $x2155 $x2628 $x3504 $x1094 $x2255 $x1563)))))))))))
(assert
 (let (($x824 (= cell_5_9 2)))
 (or (= cell_5_9 1) $x824 (= cell_5_9 3) (= cell_5_9 4) (= cell_5_9 5) (= cell_5_9 6) (= cell_5_9 7) (= cell_5_9 8) (= cell_5_9 9))))
(assert
 (let (($x570 (= cell_6_9 9)))
 (let (($x663 (= cell_6_9 8)))
 (let (($x3017 (= cell_6_9 7)))
 (let (($x125 (= cell_6_9 6)))
 (let (($x94 (= cell_6_9 5)))
 (let (($x1240 (= cell_6_9 4)))
 (let (($x1411 (= cell_6_9 3)))
 (let (($x2753 (= cell_6_9 2)))
 (let (($x2464 (= cell_6_9 1)))
 (or $x2464 $x2753 $x1411 $x1240 $x94 $x125 $x3017 $x663 $x570)))))))))))
(assert
 (let (($x515 (= cell_7_9 9)))
 (let (($x6394 (= cell_7_9 8)))
 (let (($x189 (= cell_7_9 7)))
 (let (($x818 (= cell_7_9 6)))
 (let (($x253 (= cell_7_9 5)))
 (let (($x995 (= cell_7_9 4)))
 (let (($x2246 (= cell_7_9 3)))
 (let (($x1657 (= cell_7_9 2)))
 (let (($x1559 (= cell_7_9 1)))
 (or $x1559 $x1657 $x2246 $x995 $x253 $x818 $x189 $x6394 $x515)))))))))))
(assert
 (let (($x2304 (= cell_8_9 9)))
 (let (($x2016 (= cell_8_9 8)))
 (let (($x3127 (= cell_8_9 7)))
 (let (($x2790 (= cell_8_9 6)))
 (let (($x1066 (= cell_8_9 5)))
 (let (($x976 (= cell_8_9 4)))
 (let (($x3004 (= cell_8_9 3)))
 (let (($x379 (= cell_8_9 2)))
 (let (($x1401 (= cell_8_9 1)))
 (or $x1401 $x379 $x3004 $x976 $x1066 $x2790 $x3127 $x2016 $x2304)))))))))))
(assert
 (let (($x321 (= cell_9_9 1)))
 (or $x321 (= cell_9_9 2) (= cell_9_9 3) (= cell_9_9 4) (= cell_9_9 5) (= cell_9_9 6) (= cell_9_9 7) (= cell_9_9 8) (= cell_9_9 9))))
(assert
 (and (distinct cell_1_1 cell_1_2 cell_1_3 cell_1_4 cell_1_5 cell_1_6 cell_1_7 cell_1_8 cell_1_9) true))
(assert
 (and (distinct cell_2_1 cell_2_2 cell_2_3 cell_2_4 cell_2_5 cell_2_6 cell_2_7 cell_2_8 cell_2_9) true))
(assert
 (and (distinct cell_3_1 cell_3_2 cell_3_3 cell_3_4 cell_3_5 cell_3_6 cell_3_7 cell_3_8 cell_3_9) true))
(assert
 (and (distinct cell_4_1 cell_4_2 cell_4_3 cell_4_4 cell_4_5 cell_4_6 cell_4_7 cell_4_8 cell_4_9) true))
(assert
 (and (distinct cell_5_1 cell_5_2 cell_5_3 cell_5_4 cell_5_5 cell_5_6 cell_5_7 cell_5_8 cell_5_9) true))
(assert
 (and (distinct cell_6_1 cell_6_2 cell_6_3 cell_6_4 cell_6_5 cell_6_6 cell_6_7 cell_6_8 cell_6_9) true))
(assert
 (and (distinct cell_7_1 cell_7_2 cell_7_3 cell_7_4 cell_7_5 cell_7_6 cell_7_7 cell_7_8 cell_7_9) true))
(assert
 (and (distinct cell_8_1 cell_8_2 cell_8_3 cell_8_4 cell_8_5 cell_8_6 cell_8_7 cell_8_8 cell_8_9) true))
(assert
 (and (distinct cell_9_1 cell_9_2 cell_9_3 cell_9_4 cell_9_5 cell_9_6 cell_9_7 cell_9_8 cell_9_9) true))
(assert
 (and (distinct cell_1_1 cell_2_1 cell_3_1 cell_4_1 cell_5_1 cell_6_1 cell_7_1 cell_8_1 cell_9_1) true))
(assert
 (and (distinct cell_1_2 cell_2_2 cell_3_2 cell_4_2 cell_5_2 cell_6_2 cell_7_2 cell_8_2 cell_9_2) true))
(assert
 (and (distinct cell_1_3 cell_2_3 cell_3_3 cell_4_3 cell_5_3 cell_6_3 cell_7_3 cell_8_3 cell_9_3) true))
(assert
 (and (distinct cell_1_4 cell_2_4 cell_3_4 cell_4_4 cell_5_4 cell_6_4 cell_7_4 cell_8_4 cell_9_4) true))
(assert
 (and (distinct cell_1_5 cell_2_5 cell_3_5 cell_4_5 cell_5_5 cell_6_5 cell_7_5 cell_8_5 cell_9_5) true))
(assert
 (and (distinct cell_1_6 cell_2_6 cell_3_6 cell_4_6 cell_5_6 cell_6_6 cell_7_6 cell_8_6 cell_9_6) true))
(assert
 (and (distinct cell_1_7 cell_2_7 cell_3_7 cell_4_7 cell_5_7 cell_6_7 cell_7_7 cell_8_7 cell_9_7) true))
(assert
 (and (distinct cell_1_8 cell_2_8 cell_3_8 cell_4_8 cell_5_8 cell_6_8 cell_7_8 cell_8_8 cell_9_8) true))
(assert
 (and (distinct cell_1_9 cell_2_9 cell_3_9 cell_4_9 cell_5_9 cell_6_9 cell_7_9 cell_8_9 cell_9_9) true))
(assert
 (and (distinct cell_1_1 cell_1_2 cell_1_3 cell_2_1 cell_2_2 cell_2_3 cell_3_1 cell_3_2 cell_3_3) true))
(assert
 (and (distinct cell_1_4 cell_1_5 cell_1_6 cell_2_4 cell_2_5 cell_2_6 cell_3_4 cell_3_5 cell_3_6) true))
(assert
 (and (distinct cell_1_7 cell_1_8 cell_1_9 cell_2_7 cell_2_8 cell_2_9 cell_3_7 cell_3_8 cell_3_9) true))
(assert
 (and (distinct cell_4_1 cell_4_2 cell_4_3 cell_5_1 cell_5_2 cell_5_3 cell_6_1 cell_6_2 cell_6_3) true))
(assert
 (and (distinct cell_4_4 cell_4_5 cell_4_6 cell_5_4 cell_5_5 cell_5_6 cell_6_4 cell_6_5 cell_6_6) true))
(assert
 (and (distinct cell_4_7 cell_4_8 cell_4_9 cell_5_7 cell_5_8 cell_5_9 cell_6_7 cell_6_8 cell_6_9) true))
(assert
 (and (distinct cell_7_1 cell_7_2 cell_7_3 cell_8_1 cell_8_2 cell_8_3 cell_9_1 cell_9_2 cell_9_3) true))
(assert
 (and (distinct cell_7_4 cell_7_5 cell_7_6 cell_8_4 cell_8_5 cell_8_6 cell_9_4 cell_9_5 cell_9_6) true))
(assert
 (and (distinct cell_7_7 cell_7_8 cell_7_9 cell_8_7 cell_8_8 cell_8_9 cell_9_7 cell_9_8 cell_9_9) true))
(assert
 (let (($x223 (and (distinct cell_5_9 cell_6_8 cell_7_7 cell_8_6) true)))
 (let (($x3584 (and (distinct cell_2_9 cell_3_8 cell_4_7 cell_5_6 cell_6_5 cell_7_4 cell_8_3 cell_9_2) true)))
 (let (($x2872 (and (distinct cell_1_8 cell_2_7 cell_3_6 cell_4_5 cell_5_4 cell_6_3 cell_7_2 cell_8_1) true)))
 (let (($x654 (and (distinct cell_1_5 cell_2_4 cell_3_3 cell_4_2) true)))
 (let (($x2250 (and (distinct cell_5_1 cell_6_2 cell_7_3 cell_8_4) true)))
 (let (($x1159 (and (distinct cell_2_1 cell_3_2 cell_4_3 cell_5_4 cell_6_5 cell_7_6 cell_8_7 cell_9_8) true)))
 (let (($x398 (and (distinct cell_1_2 cell_2_3 cell_3_4 cell_4_5 cell_5_6 cell_6_7 cell_7_8 cell_8_9) true)))
 (let (($x562 (and (distinct cell_1_5 cell_2_6 cell_3_7 cell_4_8) true)))
 (and $x562 $x398 $x1159 $x2250 $x654 $x2872 $x3584 $x223))))))))))
(assert
 (= cell_4_5 3))
(check-sat)
